100 100 100
50
69 35 84
85 92 19
25 3 8
79 83 92
96 56 80
48 38 36
66 35 68
86 8 77
97 31 82
50 69 57
85 65 50
87 4 93
73 27 82
81 9 73
93 46 77
6 3 43
25 100 80
90 70 22
77 36 91
8 20 23
98 60 85
47 45 14
99 38 70
72 45 88
70 15 80
87 35 79
69 31 68
90 33 99
88 6 89
95 92 50
76 22 66
81 10 99
69 39 90
68 2 85
76 43 99
88 47 68
4 8 3
78 93 43
97 20 83
91 40 83
92 92 35
80 41 76
80 84 44
90 19 79
66 73 46
67 8 78
74 21 71
82 18 79
66 16 97
6 13 4
